n=20;
t=24;
profit=[2 6 2 3 7 3 3 2 5 5 10 2 9 6 7 6 9 5 8 7];
length=[2 5 1 4 1 4 3 1 4 1 4 3 4 3 1 4 3 4 2 5];
min_deliver=[7 9 10 8 8 16 20 13 23 1 11 19 15 15 15 14 12 4 18 19];
max_deliver=[11 14 14 10 9 16 20 14 23 6 14 20 18 17 18 17 14 6 23 24];
surface=[2 5 1 3 4 3 1 1 4 1 2 2 4 4 4 5 1 5 4 2];
surface_capacity=12;
